benchmark/results/graph__15-1000-0.10-02_17/graph__15-1000-0.10-02_17_QuintonOs_Benders_sub.lp
\ This file has been generated by DOcplex
\ ENCODING=ISO-8859-1
\Problem name: Quinton Bounded Benders_dual_sub

Minimize
 obj: 0.000906618314 pi_nr_a0 + 0.001055966209 pi_nr_a1
      + 0.001686340641 pi_nr_a2 + 0.001068376068 pi_nr_a3
      + 0.001213592233 pi_nr_a4 + 0.001497005988 pi_nr_a5
      + 0.000946969697 pi_nr_a6 + 0.001388888889 pi_nr_a7
      + 0.001077586207 pi_nr_a8 + 0.000831255195 pi_nr_a9
      + 0.000783085356 pi_nr_a10 + 0.000878734622 pi_nr_a11
      + 0.000904977376 pi_nr_a12 + 0.001335113485 pi_nr_a13
      + 0.000959692898 pi_nr_a14 + pi_p_a2_a0 + pi_p_a6_a4 + pi_p_a10_a4
      + pi_p_a12_a7 + pi_p_a14_a9 + pi_p_a11_a10 + pi_p_a9_a4 + pi_p_a13_a13
      + pi_p_a2_a2 + pi_p_a13_a7 + 1261 pi_d_a0_a1_proc_0
      + 1261 pi_d_a0_a1_proc_1 + 1294 pi_d_a1_a0_proc_0 + 1294 pi_d_a1_a0_proc_1
      + 1294 pi_d_a0_a2_proc_0 + 1294 pi_d_a0_a2_proc_1 + 1261 pi_d_a2_a0_proc_0
      + 1261 pi_d_a2_a0_proc_1 + 1294 pi_d_a0_a3_proc_0 + 1261 pi_d_a3_a0_proc_0
      + 2555 pi_d_a0_a4_proc_0 + pi_d_a0_a4_proc_1 + 2554 pi_d_a4_a0_proc_0
      + 2554 pi_d_a0_a5_proc_0 + 2555 pi_d_a5_a0_proc_0 + pi_d_a5_a0_proc_1
      + pi_d_a6_a0_proc_1 + 2554 pi_d_a0_a7_proc_0 + 2555 pi_d_a7_a0_proc_0
      + pi_d_a7_a0_proc_1 + 1294 pi_d_a0_a8_proc_0 + 1261 pi_d_a8_a0_proc_0
      + 1294 pi_d_a0_a9_proc_0 + 1261 pi_d_a9_a0_proc_0 + pi_d_a10_a0_proc_1
      + 1261 pi_d_a0_a11_proc_0 + 1294 pi_d_a11_a0_proc_0 - pi_d_a0_a12_proc_1
      + 2 pi_d_a12_a0_proc_1 + 1261 pi_d_a0_a13_proc_0 + 1294 pi_d_a13_a0_proc_0
      + 1294 pi_d_a0_a14_proc_0 + 1261 pi_d_a14_a0_proc_0
      + 2554 pi_d_a1_a2_proc_1 + pi_d_a2_a1_proc_0 + 2555 pi_d_a2_a1_proc_1
      + pi_d_a3_a1_proc_0 + 1294 pi_d_a1_a4_proc_0 + 1294 pi_d_a1_a4_proc_1
      + 1261 pi_d_a4_a1_proc_0 + 1261 pi_d_a4_a1_proc_1 + 1294 pi_d_a1_a5_proc_0
      + 1294 pi_d_a1_a5_proc_1 + 1261 pi_d_a5_a1_proc_0 + 1261 pi_d_a5_a1_proc_1
      + 1294 pi_d_a1_a6_proc_1 + 1261 pi_d_a6_a1_proc_1 + 1294 pi_d_a1_a7_proc_0
      + 1294 pi_d_a1_a7_proc_1 + 1261 pi_d_a7_a1_proc_0 + 1261 pi_d_a7_a1_proc_1
      + pi_d_a8_a1_proc_0 + pi_d_a9_a1_proc_0 + 1294 pi_d_a1_a10_proc_1
      + 1261 pi_d_a10_a1_proc_1 + pi_d_a11_a1_proc_0 + 1294 pi_d_a1_a12_proc_1
      + 1261 pi_d_a12_a1_proc_1 + pi_d_a13_a1_proc_0 + pi_d_a14_a1_proc_0
      + pi_d_a2_a3_proc_0 + 1261 pi_d_a2_a4_proc_0 + 1261 pi_d_a2_a4_proc_1
      + 1294 pi_d_a4_a2_proc_0 + 1294 pi_d_a4_a2_proc_1 + 1261 pi_d_a2_a5_proc_0
      + 1261 pi_d_a2_a5_proc_1 + 1294 pi_d_a5_a2_proc_0 + 1294 pi_d_a5_a2_proc_1
      + 1294 pi_d_a2_a6_proc_1 + 1261 pi_d_a6_a2_proc_1 + 1294 pi_d_a2_a7_proc_0
      + 1294 pi_d_a2_a7_proc_1 + 1261 pi_d_a7_a2_proc_0 + 1261 pi_d_a7_a2_proc_1
      + pi_d_a2_a8_proc_0 + pi_d_a2_a9_proc_0 + 1261 pi_d_a2_a10_proc_1
      + 1294 pi_d_a10_a2_proc_1 + pi_d_a11_a2_proc_0 + 1261 pi_d_a2_a12_proc_1
      + 1294 pi_d_a12_a2_proc_1 + pi_d_a2_a13_proc_0 + pi_d_a14_a2_proc_0
      + 1294 pi_d_a3_a4_proc_0 + 1261 pi_d_a4_a3_proc_0 + 1261 pi_d_a3_a5_proc_0
      + 1294 pi_d_a5_a3_proc_0 + 1294 pi_d_a3_a7_proc_0 + 1261 pi_d_a7_a3_proc_0
      + pi_d_a8_a3_proc_0 + pi_d_a9_a3_proc_0 + pi_d_a11_a3_proc_0
      + pi_d_a13_a3_proc_0 + pi_d_a14_a3_proc_0 + 2554 pi_d_a4_a5_proc_0
      + 2555 pi_d_a5_a4_proc_0 + pi_d_a5_a4_proc_1 + pi_d_a6_a4_proc_1
      + 2554 pi_d_a4_a7_proc_0 + 2555 pi_d_a7_a4_proc_0 + pi_d_a7_a4_proc_1
      + 1294 pi_d_a4_a8_proc_0 + 1261 pi_d_a8_a4_proc_0 + 1294 pi_d_a4_a9_proc_0
      + 1261 pi_d_a9_a4_proc_0 + pi_d_a10_a4_proc_1 + 1294 pi_d_a4_a11_proc_0
      + 1261 pi_d_a11_a4_proc_0 - pi_d_a4_a12_proc_1 + 2 pi_d_a12_a4_proc_1
      + 1261 pi_d_a4_a13_proc_0 + 1294 pi_d_a13_a4_proc_0
      + 1294 pi_d_a4_a14_proc_0 + 1261 pi_d_a14_a4_proc_0 + pi_d_a6_a5_proc_1
      + 2555 pi_d_a5_a7_proc_0 + pi_d_a5_a7_proc_1 + 2554 pi_d_a7_a5_proc_0
      + 1261 pi_d_a5_a8_proc_0 + 1294 pi_d_a8_a5_proc_0 + 1261 pi_d_a5_a9_proc_0
      + 1294 pi_d_a9_a5_proc_0 + pi_d_a10_a5_proc_1 + 1261 pi_d_a5_a11_proc_0
      + 1294 pi_d_a11_a5_proc_0 + pi_d_a12_a5_proc_1 + 1294 pi_d_a5_a13_proc_0
      + 1261 pi_d_a13_a5_proc_0 + 1261 pi_d_a5_a14_proc_0
      + 1294 pi_d_a14_a5_proc_0 + pi_d_a6_a7_proc_1 + pi_d_a10_a6_proc_1
      + pi_d_a12_a6_proc_1 + 1261 pi_d_a7_a8_proc_0 + 1294 pi_d_a8_a7_proc_0
      + 1294 pi_d_a7_a9_proc_0 + 1261 pi_d_a9_a7_proc_0 + pi_d_a10_a7_proc_1
      + 1261 pi_d_a7_a11_proc_0 + 1294 pi_d_a11_a7_proc_0 + pi_d_a12_a7_proc_1
      + 1294 pi_d_a7_a13_proc_0 + 1261 pi_d_a13_a7_proc_0
      + 1261 pi_d_a7_a14_proc_0 + 1294 pi_d_a14_a7_proc_0 + pi_d_a8_a9_proc_0
      + pi_d_a11_a8_proc_0 + pi_d_a13_a8_proc_0 + pi_d_a14_a8_proc_0
      + pi_d_a11_a9_proc_0 + pi_d_a13_a9_proc_0 + pi_d_a14_a9_proc_0
      + pi_d_a12_a10_proc_1 + pi_d_a11_a13_proc_0 + pi_d_a14_a11_proc_0
      + pi_d_a14_a13_proc_0 + pi_y2_a0_proc_1 + pi_y2_a1_proc_0
      + pi_y2_a2_proc_0 + pi_y2_a3_proc_0 + pi_y2_a4_proc_1 + pi_y2_a5_proc_1
      + pi_y2_a6_proc_1 + pi_y2_a7_proc_1 + pi_y2_a8_proc_0 + pi_y2_a9_proc_0
      + pi_y2_a10_proc_1 + pi_y2_a11_proc_0 + pi_y2_a12_proc_1
      + pi_y2_a13_proc_0 + pi_y2_a14_proc_0
Subject To
 c1: pi_nr_a0 + pi_nr_a1 + pi_nr_a2 + pi_nr_a3 + pi_nr_a4 + pi_nr_a5 + pi_nr_a6
     + pi_nr_a7 + pi_nr_a8 + pi_nr_a9 + pi_nr_a10 + pi_nr_a11 + pi_nr_a12
     + pi_nr_a13 + pi_nr_a14 - pi_y1_a0 - pi_y1_a1 - pi_y1_a2 - pi_y1_a3
     - pi_y1_a4 - pi_y1_a5 - pi_y1_a6 - pi_y1_a7 - pi_y1_a8 - pi_y1_a9
     - pi_y1_a10 - pi_y1_a11 - pi_y1_a12 - pi_y1_a13 - pi_y1_a14 >= 1
 c2: pi_p_a0_a1 - pi_p_a2_a0 - pi_p_a4_a0 + pi_d_a0_a1_proc_0
     + pi_d_a0_a1_proc_1 - pi_d_a1_a0_proc_0 - pi_d_a1_a0_proc_1
     + pi_d_a0_a2_proc_0 + pi_d_a0_a2_proc_1 - pi_d_a2_a0_proc_0
     - pi_d_a2_a0_proc_1 + pi_d_a0_a3_proc_0 - pi_d_a3_a0_proc_0
     + pi_d_a0_a4_proc_0 + pi_d_a0_a4_proc_1 - pi_d_a4_a0_proc_0
     - pi_d_a4_a0_proc_1 + pi_d_a0_a5_proc_0 + pi_d_a0_a5_proc_1
     - pi_d_a5_a0_proc_0 - pi_d_a5_a0_proc_1 + pi_d_a0_a6_proc_1
     - pi_d_a6_a0_proc_1 + pi_d_a0_a7_proc_0 + pi_d_a0_a7_proc_1
     - pi_d_a7_a0_proc_0 - pi_d_a7_a0_proc_1 + pi_d_a0_a8_proc_0
     - pi_d_a8_a0_proc_0 + pi_d_a0_a9_proc_0 - pi_d_a9_a0_proc_0
     + pi_d_a0_a10_proc_1 - pi_d_a10_a0_proc_1 + pi_d_a0_a11_proc_0
     - pi_d_a11_a0_proc_0 + pi_d_a0_a12_proc_1 - pi_d_a12_a0_proc_1
     + pi_d_a0_a13_proc_0 - pi_d_a13_a0_proc_0 + pi_d_a0_a14_proc_0
     - pi_d_a14_a0_proc_0 >= 0
 c3: 975 pi_p_a0_a1 + 975 pi_d_a0_a1_proc_0 + 975 pi_d_a0_a2_proc_0
     + 975 pi_d_a0_a3_proc_0 + 975 pi_d_a0_a4_proc_0 + 975 pi_d_a0_a5_proc_0
     + 975 pi_d_a0_a7_proc_0 + 975 pi_d_a0_a8_proc_0 + 975 pi_d_a0_a9_proc_0
     + 975 pi_d_a0_a11_proc_0 + 975 pi_d_a0_a13_proc_0 + 975 pi_d_a0_a14_proc_0
     + pi_y1_a0 + pi_y2_a0_proc_0 >= 0
 c4: 1103 pi_p_a0_a1 + 1103 pi_d_a0_a1_proc_1 + 1103 pi_d_a0_a2_proc_1
     + 1103 pi_d_a0_a4_proc_1 + 1103 pi_d_a0_a5_proc_1 + 1103 pi_d_a0_a6_proc_1
     + 1103 pi_d_a0_a7_proc_1 + 1103 pi_d_a0_a10_proc_1
     + 1103 pi_d_a0_a12_proc_1 + pi_y1_a0 + pi_y2_a0_proc_1 >= 0
 c5: - pi_p_a0_a1 + pi_p_a1_a3 - pi_d_a0_a1_proc_0 - pi_d_a0_a1_proc_1
     + pi_d_a1_a0_proc_0 + pi_d_a1_a0_proc_1 + pi_d_a1_a2_proc_0
     + pi_d_a1_a2_proc_1 - pi_d_a2_a1_proc_0 - pi_d_a2_a1_proc_1
     + pi_d_a1_a3_proc_0 - pi_d_a3_a1_proc_0 + pi_d_a1_a4_proc_0
     + pi_d_a1_a4_proc_1 - pi_d_a4_a1_proc_0 - pi_d_a4_a1_proc_1
     + pi_d_a1_a5_proc_0 + pi_d_a1_a5_proc_1 - pi_d_a5_a1_proc_0
     - pi_d_a5_a1_proc_1 + pi_d_a1_a6_proc_1 - pi_d_a6_a1_proc_1
     + pi_d_a1_a7_proc_0 + pi_d_a1_a7_proc_1 - pi_d_a7_a1_proc_0
     - pi_d_a7_a1_proc_1 + pi_d_a1_a8_proc_0 - pi_d_a8_a1_proc_0
     + pi_d_a1_a9_proc_0 - pi_d_a9_a1_proc_0 + pi_d_a1_a10_proc_1
     - pi_d_a10_a1_proc_1 + pi_d_a1_a11_proc_0 - pi_d_a11_a1_proc_0
     + pi_d_a1_a12_proc_1 - pi_d_a12_a1_proc_1 + pi_d_a1_a13_proc_0
     - pi_d_a13_a1_proc_0 + pi_d_a1_a14_proc_0 - pi_d_a14_a1_proc_0 >= 0
 c6: 947 pi_p_a1_a3 + 947 pi_d_a1_a0_proc_0 + 947 pi_d_a1_a2_proc_0
     + 947 pi_d_a1_a3_proc_0 + 947 pi_d_a1_a4_proc_0 + 947 pi_d_a1_a5_proc_0
     + 947 pi_d_a1_a7_proc_0 + 947 pi_d_a1_a8_proc_0 + 947 pi_d_a1_a9_proc_0
     + 947 pi_d_a1_a11_proc_0 + 947 pi_d_a1_a13_proc_0 + 947 pi_d_a1_a14_proc_0
     + pi_y1_a1 + pi_y2_a1_proc_0 >= 0
 c7: 1233 pi_p_a1_a3 + 1233 pi_d_a1_a0_proc_1 + 1233 pi_d_a1_a2_proc_1
     + 1233 pi_d_a1_a4_proc_1 + 1233 pi_d_a1_a5_proc_1 + 1233 pi_d_a1_a6_proc_1
     + 1233 pi_d_a1_a7_proc_1 + 1233 pi_d_a1_a10_proc_1
     + 1233 pi_d_a1_a12_proc_1 + pi_y1_a1 + pi_y2_a1_proc_1 >= 0
 c8: pi_p_a2_a0 - pi_p_a7_a2 - pi_d_a0_a2_proc_0 - pi_d_a0_a2_proc_1
     + pi_d_a2_a0_proc_0 + pi_d_a2_a0_proc_1 - pi_d_a1_a2_proc_0
     - pi_d_a1_a2_proc_1 + pi_d_a2_a1_proc_0 + pi_d_a2_a1_proc_1
     + pi_d_a2_a3_proc_0 - pi_d_a3_a2_proc_0 + pi_d_a2_a4_proc_0
     + pi_d_a2_a4_proc_1 - pi_d_a4_a2_proc_0 - pi_d_a4_a2_proc_1
     + pi_d_a2_a5_proc_0 + pi_d_a2_a5_proc_1 - pi_d_a5_a2_proc_0
     - pi_d_a5_a2_proc_1 + pi_d_a2_a6_proc_1 - pi_d_a6_a2_proc_1
     + pi_d_a2_a7_proc_0 + pi_d_a2_a7_proc_1 - pi_d_a7_a2_proc_0
     - pi_d_a7_a2_proc_1 + pi_d_a2_a8_proc_0 - pi_d_a8_a2_proc_0
     + pi_d_a2_a9_proc_0 - pi_d_a9_a2_proc_0 + pi_d_a2_a10_proc_1
     - pi_d_a10_a2_proc_1 + pi_d_a2_a11_proc_0 - pi_d_a11_a2_proc_0
     + pi_d_a2_a12_proc_1 - pi_d_a12_a2_proc_1 + pi_d_a2_a13_proc_0
     - pi_d_a13_a2_proc_0 + pi_d_a2_a14_proc_0 - pi_d_a14_a2_proc_0 >= 0
 c9: 593 pi_p_a2_a0 + 593 pi_p_a2_a2 + 593 pi_d_a2_a0_proc_0
     + 593 pi_d_a2_a1_proc_0 + 593 pi_d_a2_a3_proc_0 + 593 pi_d_a2_a4_proc_0
     + 593 pi_d_a2_a5_proc_0 + 593 pi_d_a2_a7_proc_0 + 593 pi_d_a2_a8_proc_0
     + 593 pi_d_a2_a9_proc_0 + 593 pi_d_a2_a11_proc_0 + 593 pi_d_a2_a13_proc_0
     + 593 pi_d_a2_a14_proc_0 + pi_y1_a2 + pi_y2_a2_proc_0 >= 0
 c10: 1069 pi_p_a2_a0 + 1069 pi_p_a2_a2 + 1069 pi_d_a2_a0_proc_1
      + 1069 pi_d_a2_a1_proc_1 + 1069 pi_d_a2_a4_proc_1 + 1069 pi_d_a2_a5_proc_1
      + 1069 pi_d_a2_a6_proc_1 + 1069 pi_d_a2_a7_proc_1
      + 1069 pi_d_a2_a10_proc_1 + 1069 pi_d_a2_a12_proc_1 + pi_y1_a2
      + pi_y2_a2_proc_1 >= 0
 c11: - pi_p_a1_a3 + pi_p_a3_a5 + pi_p_a3_a9 - pi_d_a0_a3_proc_0
      + pi_d_a3_a0_proc_0 - pi_d_a1_a3_proc_0 + pi_d_a3_a1_proc_0
      - pi_d_a2_a3_proc_0 + pi_d_a3_a2_proc_0 + pi_d_a3_a4_proc_0
      - pi_d_a4_a3_proc_0 + pi_d_a3_a5_proc_0 - pi_d_a5_a3_proc_0
      + pi_d_a3_a7_proc_0 - pi_d_a7_a3_proc_0 + pi_d_a3_a8_proc_0
      - pi_d_a8_a3_proc_0 + pi_d_a3_a9_proc_0 - pi_d_a9_a3_proc_0
      + pi_d_a3_a11_proc_0 - pi_d_a11_a3_proc_0 + pi_d_a3_a13_proc_0
      - pi_d_a13_a3_proc_0 + pi_d_a3_a14_proc_0 - pi_d_a14_a3_proc_0 >= 0
 c12: 936 pi_p_a3_a5 + 936 pi_p_a3_a9 + 936 pi_d_a3_a0_proc_0
      + 936 pi_d_a3_a1_proc_0 + 936 pi_d_a3_a2_proc_0 + 936 pi_d_a3_a4_proc_0
      + 936 pi_d_a3_a5_proc_0 + 936 pi_d_a3_a7_proc_0 + 936 pi_d_a3_a8_proc_0
      + 936 pi_d_a3_a9_proc_0 + 936 pi_d_a3_a11_proc_0 + 936 pi_d_a3_a13_proc_0
      + 936 pi_d_a3_a14_proc_0 + pi_y1_a3 + pi_y2_a3_proc_0 >= 0
 c13: pi_p_a4_a0 - pi_p_a6_a4 - pi_p_a10_a4 - pi_p_a9_a4 - pi_d_a0_a4_proc_0
      - pi_d_a0_a4_proc_1 + pi_d_a4_a0_proc_0 + pi_d_a4_a0_proc_1
      - pi_d_a1_a4_proc_0 - pi_d_a1_a4_proc_1 + pi_d_a4_a1_proc_0
      + pi_d_a4_a1_proc_1 - pi_d_a2_a4_proc_0 - pi_d_a2_a4_proc_1
      + pi_d_a4_a2_proc_0 + pi_d_a4_a2_proc_1 - pi_d_a3_a4_proc_0
      + pi_d_a4_a3_proc_0 + pi_d_a4_a5_proc_0 + pi_d_a4_a5_proc_1
      - pi_d_a5_a4_proc_0 - pi_d_a5_a4_proc_1 + pi_d_a4_a6_proc_1
      - pi_d_a6_a4_proc_1 + pi_d_a4_a7_proc_0 + pi_d_a4_a7_proc_1
      - pi_d_a7_a4_proc_0 - pi_d_a7_a4_proc_1 + pi_d_a4_a8_proc_0
      - pi_d_a8_a4_proc_0 + pi_d_a4_a9_proc_0 - pi_d_a9_a4_proc_0
      + pi_d_a4_a10_proc_1 - pi_d_a10_a4_proc_1 + pi_d_a4_a11_proc_0
      - pi_d_a11_a4_proc_0 + pi_d_a4_a12_proc_1 - pi_d_a12_a4_proc_1
      + pi_d_a4_a13_proc_0 - pi_d_a13_a4_proc_0 + pi_d_a4_a14_proc_0
      - pi_d_a14_a4_proc_0 >= 0
 c14: 1177 pi_p_a4_a0 + 1177 pi_d_a4_a0_proc_0 + 1177 pi_d_a4_a1_proc_0
      + 1177 pi_d_a4_a2_proc_0 + 1177 pi_d_a4_a3_proc_0 + 1177 pi_d_a4_a5_proc_0
      + 1177 pi_d_a4_a7_proc_0 + 1177 pi_d_a4_a8_proc_0 + 1177 pi_d_a4_a9_proc_0
      + 1177 pi_d_a4_a11_proc_0 + 1177 pi_d_a4_a13_proc_0
      + 1177 pi_d_a4_a14_proc_0 + pi_y1_a4 + pi_y2_a4_proc_0 >= 0
 c15: 824 pi_p_a4_a0 + 824 pi_d_a4_a0_proc_1 + 824 pi_d_a4_a1_proc_1
      + 824 pi_d_a4_a2_proc_1 + 824 pi_d_a4_a5_proc_1 + 824 pi_d_a4_a6_proc_1
      + 824 pi_d_a4_a7_proc_1 + 824 pi_d_a4_a10_proc_1 + 824 pi_d_a4_a12_proc_1
      + pi_y1_a4 + pi_y2_a4_proc_1 >= 0
 c16: - pi_p_a3_a5 + pi_p_a5_a8 - pi_d_a0_a5_proc_0 - pi_d_a0_a5_proc_1
      + pi_d_a5_a0_proc_0 + pi_d_a5_a0_proc_1 - pi_d_a1_a5_proc_0
      - pi_d_a1_a5_proc_1 + pi_d_a5_a1_proc_0 + pi_d_a5_a1_proc_1
      - pi_d_a2_a5_proc_0 - pi_d_a2_a5_proc_1 + pi_d_a5_a2_proc_0
      + pi_d_a5_a2_proc_1 - pi_d_a3_a5_proc_0 + pi_d_a5_a3_proc_0
      - pi_d_a4_a5_proc_0 - pi_d_a4_a5_proc_1 + pi_d_a5_a4_proc_0
      + pi_d_a5_a4_proc_1 + pi_d_a5_a6_proc_1 - pi_d_a6_a5_proc_1
      + pi_d_a5_a7_proc_0 + pi_d_a5_a7_proc_1 - pi_d_a7_a5_proc_0
      - pi_d_a7_a5_proc_1 + pi_d_a5_a8_proc_0 - pi_d_a8_a5_proc_0
      + pi_d_a5_a9_proc_0 - pi_d_a9_a5_proc_0 + pi_d_a5_a10_proc_1
      - pi_d_a10_a5_proc_1 + pi_d_a5_a11_proc_0 - pi_d_a11_a5_proc_0
      + pi_d_a5_a12_proc_1 - pi_d_a12_a5_proc_1 + pi_d_a5_a13_proc_0
      - pi_d_a13_a5_proc_0 + pi_d_a5_a14_proc_0 - pi_d_a14_a5_proc_0 >= 0
 c17: 1028 pi_p_a5_a8 + 1028 pi_d_a5_a0_proc_0 + 1028 pi_d_a5_a1_proc_0
      + 1028 pi_d_a5_a2_proc_0 + 1028 pi_d_a5_a3_proc_0 + 1028 pi_d_a5_a4_proc_0
      + 1028 pi_d_a5_a7_proc_0 + 1028 pi_d_a5_a8_proc_0 + 1028 pi_d_a5_a9_proc_0
      + 1028 pi_d_a5_a11_proc_0 + 1028 pi_d_a5_a13_proc_0
      + 1028 pi_d_a5_a14_proc_0 + pi_y1_a5 + pi_y2_a5_proc_0 >= 0
 c18: 668 pi_p_a5_a8 + 668 pi_d_a5_a0_proc_1 + 668 pi_d_a5_a1_proc_1
      + 668 pi_d_a5_a2_proc_1 + 668 pi_d_a5_a4_proc_1 + 668 pi_d_a5_a6_proc_1
      + 668 pi_d_a5_a7_proc_1 + 668 pi_d_a5_a10_proc_1 + 668 pi_d_a5_a12_proc_1
      + pi_y1_a5 + pi_y2_a5_proc_1 >= 0
 c19: pi_p_a6_a4 - pi_p_a7_a6 + pi_p_a6_a13 - pi_d_a0_a6_proc_1
      + pi_d_a6_a0_proc_1 - pi_d_a1_a6_proc_1 + pi_d_a6_a1_proc_1
      - pi_d_a2_a6_proc_1 + pi_d_a6_a2_proc_1 - pi_d_a4_a6_proc_1
      + pi_d_a6_a4_proc_1 - pi_d_a5_a6_proc_1 + pi_d_a6_a5_proc_1
      + pi_d_a6_a7_proc_1 - pi_d_a7_a6_proc_1 + pi_d_a6_a10_proc_1
      - pi_d_a10_a6_proc_1 + pi_d_a6_a12_proc_1 - pi_d_a12_a6_proc_1 >= 0
 c20: 1056 pi_p_a6_a4 + 1056 pi_p_a6_a13 + 1056 pi_d_a6_a0_proc_1
      + 1056 pi_d_a6_a1_proc_1 + 1056 pi_d_a6_a2_proc_1 + 1056 pi_d_a6_a4_proc_1
      + 1056 pi_d_a6_a5_proc_1 + 1056 pi_d_a6_a7_proc_1
      + 1056 pi_d_a6_a10_proc_1 + 1056 pi_d_a6_a12_proc_1 + pi_y1_a6
      + pi_y2_a6_proc_1 >= 0
 c21: pi_p_a7_a6 - pi_p_a12_a7 - pi_p_a13_a7 + pi_p_a7_a2 - pi_d_a0_a7_proc_0
      - pi_d_a0_a7_proc_1 + pi_d_a7_a0_proc_0 + pi_d_a7_a0_proc_1
      - pi_d_a1_a7_proc_0 - pi_d_a1_a7_proc_1 + pi_d_a7_a1_proc_0
      + pi_d_a7_a1_proc_1 - pi_d_a2_a7_proc_0 - pi_d_a2_a7_proc_1
      + pi_d_a7_a2_proc_0 + pi_d_a7_a2_proc_1 - pi_d_a3_a7_proc_0
      + pi_d_a7_a3_proc_0 - pi_d_a4_a7_proc_0 - pi_d_a4_a7_proc_1
      + pi_d_a7_a4_proc_0 + pi_d_a7_a4_proc_1 - pi_d_a5_a7_proc_0
      - pi_d_a5_a7_proc_1 + pi_d_a7_a5_proc_0 + pi_d_a7_a5_proc_1
      - pi_d_a6_a7_proc_1 + pi_d_a7_a6_proc_1 + pi_d_a7_a8_proc_0
      - pi_d_a8_a7_proc_0 + pi_d_a7_a9_proc_0 - pi_d_a9_a7_proc_0
      + pi_d_a7_a10_proc_1 - pi_d_a10_a7_proc_1 + pi_d_a7_a11_proc_0
      - pi_d_a11_a7_proc_0 + pi_d_a7_a12_proc_1 - pi_d_a12_a7_proc_1
      + pi_d_a7_a13_proc_0 - pi_d_a13_a7_proc_0 + pi_d_a7_a14_proc_0
      - pi_d_a14_a7_proc_0 >= 0
 c22: 1187 pi_p_a7_a6 + 1187 pi_p_a7_a2 + 1187 pi_d_a7_a0_proc_0
      + 1187 pi_d_a7_a1_proc_0 + 1187 pi_d_a7_a2_proc_0 + 1187 pi_d_a7_a3_proc_0
      + 1187 pi_d_a7_a4_proc_0 + 1187 pi_d_a7_a5_proc_0 + 1187 pi_d_a7_a8_proc_0
      + 1187 pi_d_a7_a9_proc_0 + 1187 pi_d_a7_a11_proc_0
      + 1187 pi_d_a7_a13_proc_0 + 1187 pi_d_a7_a14_proc_0 + pi_y1_a7
      + pi_y2_a7_proc_0 >= 0
 c23: 720 pi_p_a7_a6 + 720 pi_p_a7_a2 + 720 pi_d_a7_a0_proc_1
      + 720 pi_d_a7_a1_proc_1 + 720 pi_d_a7_a2_proc_1 + 720 pi_d_a7_a4_proc_1
      + 720 pi_d_a7_a5_proc_1 + 720 pi_d_a7_a6_proc_1 + 720 pi_d_a7_a10_proc_1
      + 720 pi_d_a7_a12_proc_1 + pi_y1_a7 + pi_y2_a7_proc_1 >= 0
 c24: - pi_p_a5_a8 + pi_p_a8_a10 - pi_d_a0_a8_proc_0 + pi_d_a8_a0_proc_0
      - pi_d_a1_a8_proc_0 + pi_d_a8_a1_proc_0 - pi_d_a2_a8_proc_0
      + pi_d_a8_a2_proc_0 - pi_d_a3_a8_proc_0 + pi_d_a8_a3_proc_0
      - pi_d_a4_a8_proc_0 + pi_d_a8_a4_proc_0 - pi_d_a5_a8_proc_0
      + pi_d_a8_a5_proc_0 - pi_d_a7_a8_proc_0 + pi_d_a8_a7_proc_0
      + pi_d_a8_a9_proc_0 - pi_d_a9_a8_proc_0 + pi_d_a8_a11_proc_0
      - pi_d_a11_a8_proc_0 + pi_d_a8_a13_proc_0 - pi_d_a13_a8_proc_0
      + pi_d_a8_a14_proc_0 - pi_d_a14_a8_proc_0 >= 0
 c25: 928 pi_p_a8_a10 + 928 pi_d_a8_a0_proc_0 + 928 pi_d_a8_a1_proc_0
      + 928 pi_d_a8_a2_proc_0 + 928 pi_d_a8_a3_proc_0 + 928 pi_d_a8_a4_proc_0
      + 928 pi_d_a8_a5_proc_0 + 928 pi_d_a8_a7_proc_0 + 928 pi_d_a8_a9_proc_0
      + 928 pi_d_a8_a11_proc_0 + 928 pi_d_a8_a13_proc_0 + 928 pi_d_a8_a14_proc_0
      + pi_y1_a8 + pi_y2_a8_proc_0 >= 0
 c26: - pi_p_a3_a9 + pi_p_a9_a11 - pi_p_a14_a9 + pi_p_a9_a4 + pi_p_a9_a10
      - pi_d_a0_a9_proc_0 + pi_d_a9_a0_proc_0 - pi_d_a1_a9_proc_0
      + pi_d_a9_a1_proc_0 - pi_d_a2_a9_proc_0 + pi_d_a9_a2_proc_0
      - pi_d_a3_a9_proc_0 + pi_d_a9_a3_proc_0 - pi_d_a4_a9_proc_0
      + pi_d_a9_a4_proc_0 - pi_d_a5_a9_proc_0 + pi_d_a9_a5_proc_0
      - pi_d_a7_a9_proc_0 + pi_d_a9_a7_proc_0 - pi_d_a8_a9_proc_0
      + pi_d_a9_a8_proc_0 + pi_d_a9_a11_proc_0 - pi_d_a11_a9_proc_0
      + pi_d_a9_a13_proc_0 - pi_d_a13_a9_proc_0 + pi_d_a9_a14_proc_0
      - pi_d_a14_a9_proc_0 >= 0
 c27: 1203 pi_p_a9_a11 + 1203 pi_p_a9_a4 + 1203 pi_p_a9_a10
      + 1203 pi_d_a9_a0_proc_0 + 1203 pi_d_a9_a1_proc_0 + 1203 pi_d_a9_a2_proc_0
      + 1203 pi_d_a9_a3_proc_0 + 1203 pi_d_a9_a4_proc_0 + 1203 pi_d_a9_a5_proc_0
      + 1203 pi_d_a9_a7_proc_0 + 1203 pi_d_a9_a8_proc_0
      + 1203 pi_d_a9_a11_proc_0 + 1203 pi_d_a9_a13_proc_0
      + 1203 pi_d_a9_a14_proc_0 + pi_y1_a9 + pi_y2_a9_proc_0 >= 0
 c28: pi_p_a10_a4 - pi_p_a11_a10 - pi_p_a8_a10 - pi_p_a9_a10
      - pi_d_a0_a10_proc_1 + pi_d_a10_a0_proc_1 - pi_d_a1_a10_proc_1
      + pi_d_a10_a1_proc_1 - pi_d_a2_a10_proc_1 + pi_d_a10_a2_proc_1
      - pi_d_a4_a10_proc_1 + pi_d_a10_a4_proc_1 - pi_d_a5_a10_proc_1
      + pi_d_a10_a5_proc_1 - pi_d_a6_a10_proc_1 + pi_d_a10_a6_proc_1
      - pi_d_a7_a10_proc_1 + pi_d_a10_a7_proc_1 + pi_d_a10_a12_proc_1
      - pi_d_a12_a10_proc_1 >= 0
 c29: 1277 pi_p_a10_a4 + 1277 pi_d_a10_a0_proc_1 + 1277 pi_d_a10_a1_proc_1
      + 1277 pi_d_a10_a2_proc_1 + 1277 pi_d_a10_a4_proc_1
      + 1277 pi_d_a10_a5_proc_1 + 1277 pi_d_a10_a6_proc_1
      + 1277 pi_d_a10_a7_proc_1 + 1277 pi_d_a10_a12_proc_1 + pi_y1_a10
      + pi_y2_a10_proc_1 >= 0
 c30: - pi_p_a9_a11 + pi_p_a11_a10 + pi_p_a11_a14 - pi_d_a0_a11_proc_0
      + pi_d_a11_a0_proc_0 - pi_d_a1_a11_proc_0 + pi_d_a11_a1_proc_0
      - pi_d_a2_a11_proc_0 + pi_d_a11_a2_proc_0 - pi_d_a3_a11_proc_0
      + pi_d_a11_a3_proc_0 - pi_d_a4_a11_proc_0 + pi_d_a11_a4_proc_0
      - pi_d_a5_a11_proc_0 + pi_d_a11_a5_proc_0 - pi_d_a7_a11_proc_0
      + pi_d_a11_a7_proc_0 - pi_d_a8_a11_proc_0 + pi_d_a11_a8_proc_0
      - pi_d_a9_a11_proc_0 + pi_d_a11_a9_proc_0 + pi_d_a11_a13_proc_0
      - pi_d_a13_a11_proc_0 + pi_d_a11_a14_proc_0 - pi_d_a14_a11_proc_0 >= 0
 c31: 1138 pi_p_a11_a10 + 1138 pi_p_a11_a14 + 1138 pi_d_a11_a0_proc_0
      + 1138 pi_d_a11_a1_proc_0 + 1138 pi_d_a11_a2_proc_0
      + 1138 pi_d_a11_a3_proc_0 + 1138 pi_d_a11_a4_proc_0
      + 1138 pi_d_a11_a5_proc_0 + 1138 pi_d_a11_a7_proc_0
      + 1138 pi_d_a11_a8_proc_0 + 1138 pi_d_a11_a9_proc_0
      + 1138 pi_d_a11_a13_proc_0 + 1138 pi_d_a11_a14_proc_0 + pi_y1_a11
      + pi_y2_a11_proc_0 >= 0
 c32: pi_p_a12_a7 - pi_p_a14_a12 - pi_p_a13_a12 - pi_d_a0_a12_proc_1
      + pi_d_a12_a0_proc_1 - pi_d_a1_a12_proc_1 + pi_d_a12_a1_proc_1
      - pi_d_a2_a12_proc_1 + pi_d_a12_a2_proc_1 - pi_d_a4_a12_proc_1
      + pi_d_a12_a4_proc_1 - pi_d_a5_a12_proc_1 + pi_d_a12_a5_proc_1
      - pi_d_a6_a12_proc_1 + pi_d_a12_a6_proc_1 - pi_d_a7_a12_proc_1
      + pi_d_a12_a7_proc_1 - pi_d_a10_a12_proc_1 + pi_d_a12_a10_proc_1 >= 0
 c33: 1105 pi_p_a12_a7 + 1105 pi_d_a12_a0_proc_1 + 1105 pi_d_a12_a1_proc_1
      + 1105 pi_d_a12_a2_proc_1 + 1105 pi_d_a12_a4_proc_1
      + 1105 pi_d_a12_a5_proc_1 + 1105 pi_d_a12_a6_proc_1
      + 1105 pi_d_a12_a7_proc_1 + 1105 pi_d_a12_a10_proc_1 + pi_y1_a12
      + pi_y2_a12_proc_1 >= 0
 c34: - pi_p_a6_a13 + pi_p_a13_a12 + pi_p_a13_a7 - pi_d_a0_a13_proc_0
      + pi_d_a13_a0_proc_0 - pi_d_a1_a13_proc_0 + pi_d_a13_a1_proc_0
      - pi_d_a2_a13_proc_0 + pi_d_a13_a2_proc_0 - pi_d_a3_a13_proc_0
      + pi_d_a13_a3_proc_0 - pi_d_a4_a13_proc_0 + pi_d_a13_a4_proc_0
      - pi_d_a5_a13_proc_0 + pi_d_a13_a5_proc_0 - pi_d_a7_a13_proc_0
      + pi_d_a13_a7_proc_0 - pi_d_a8_a13_proc_0 + pi_d_a13_a8_proc_0
      - pi_d_a9_a13_proc_0 + pi_d_a13_a9_proc_0 - pi_d_a11_a13_proc_0
      + pi_d_a13_a11_proc_0 + pi_d_a13_a14_proc_0 - pi_d_a14_a13_proc_0 >= 0
 c35: 749 pi_p_a13_a13 + 749 pi_p_a13_a12 + 749 pi_p_a13_a7
      + 749 pi_d_a13_a0_proc_0 + 749 pi_d_a13_a1_proc_0 + 749 pi_d_a13_a2_proc_0
      + 749 pi_d_a13_a3_proc_0 + 749 pi_d_a13_a4_proc_0 + 749 pi_d_a13_a5_proc_0
      + 749 pi_d_a13_a7_proc_0 + 749 pi_d_a13_a8_proc_0 + 749 pi_d_a13_a9_proc_0
      + 749 pi_d_a13_a11_proc_0 + 749 pi_d_a13_a14_proc_0 + pi_y1_a13
      + pi_y2_a13_proc_0 >= 0
 c36: pi_p_a14_a9 + pi_p_a14_a12 - pi_p_a11_a14 - pi_d_a0_a14_proc_0
      + pi_d_a14_a0_proc_0 - pi_d_a1_a14_proc_0 + pi_d_a14_a1_proc_0
      - pi_d_a2_a14_proc_0 + pi_d_a14_a2_proc_0 - pi_d_a3_a14_proc_0
      + pi_d_a14_a3_proc_0 - pi_d_a4_a14_proc_0 + pi_d_a14_a4_proc_0
      - pi_d_a5_a14_proc_0 + pi_d_a14_a5_proc_0 - pi_d_a7_a14_proc_0
      + pi_d_a14_a7_proc_0 - pi_d_a8_a14_proc_0 + pi_d_a14_a8_proc_0
      - pi_d_a9_a14_proc_0 + pi_d_a14_a9_proc_0 - pi_d_a11_a14_proc_0
      + pi_d_a14_a11_proc_0 - pi_d_a13_a14_proc_0 + pi_d_a14_a13_proc_0 >= 0
 c37: 1042 pi_p_a14_a9 + 1042 pi_p_a14_a12 + 1042 pi_d_a14_a0_proc_0
      + 1042 pi_d_a14_a1_proc_0 + 1042 pi_d_a14_a2_proc_0
      + 1042 pi_d_a14_a3_proc_0 + 1042 pi_d_a14_a4_proc_0
      + 1042 pi_d_a14_a5_proc_0 + 1042 pi_d_a14_a7_proc_0
      + 1042 pi_d_a14_a8_proc_0 + 1042 pi_d_a14_a9_proc_0
      + 1042 pi_d_a14_a11_proc_0 + 1042 pi_d_a14_a13_proc_0 + pi_y1_a14
      + pi_y2_a14_proc_0 >= 0

Bounds
       pi_y1_a0 Free
       pi_y1_a1 Free
       pi_y1_a2 Free
       pi_y1_a3 Free
       pi_y1_a4 Free
       pi_y1_a5 Free
       pi_y1_a6 Free
       pi_y1_a7 Free
       pi_y1_a8 Free
       pi_y1_a9 Free
       pi_y1_a10 Free
       pi_y1_a11 Free
       pi_y1_a12 Free
       pi_y1_a13 Free
       pi_y1_a14 Free
End
