benchmark/results/graph__15-1000-0.10-02_17/graph__15-1000-0.10-02_17_QuintonOs_Benders_sub.txt
solution for: Quinton Bounded Benders_dual_sub
objective: 0.000132696
status: OPTIMAL_SOLUTION(2)
pi_p_a1_a3=0.000
pi_p_a3_a9=0.000
pi_p_a11_a14=0.000
pi_d_a14_a1_proc_0=0.000
pi_d_a2_a11_proc_0=0.000
pi_d_a13_a2_proc_0=0.000
pi_d_a9_a8_proc_0=0.000
pi_d_a8_a13_proc_0=0.000
pi_y1_a1=-0.126
pi_y1_a2=-0.079
pi_y1_a3=-0.124
pi_y1_a8=-0.123
pi_y1_a9=-0.160
pi_y1_a11=-0.151
pi_y1_a13=-0.099
pi_y1_a14=-0.138
pi_y2_a2_proc_1=0.079
